
Gurobi 9.0.2 (win64) logging started Sat Oct 10 17:47:31 2020

Changed value of parameter logfile to result\v6.2-20201010T1221\scenario_2030_eff050_cab5000.log
   Prev:   Default: 
Gurobi Optimizer version 9.0.2 build v9.0.2rc0 (win64)
Optimize a model with 1384150 rows, 884815 columns and 3912197 nonzeros
Model fingerprint: 0xfeffee1c
Coefficient statistics:
  Matrix range     [1e-07, 5e+05]
  Objective range  [1e+00, 1e+00]
  Bounds range     [0e+00, 0e+00]
  RHS range        [2e-05, 3e+08]
Warning: Model contains large matrix coefficient range
         Consider reformulating model or setting NumericFocus parameter
         to avoid numerical issues.

Concurrent LP optimizer: primal simplex, dual simplex, and barrier
Showing barrier log only...

Presolve removed 1129315 rows and 656241 columns
Presolve time: 3.38s
Presolved: 254835 rows, 342440 columns, 891938 nonzeros

Ordering time: 0.12s

Barrier statistics:
 Dense cols : 9
 AA' NZ     : 8.194e+05
 Factor NZ  : 4.461e+06 (roughly 300 MBytes of memory)
 Factor Ops : 1.125e+08 (less than 1 second per iteration)
 Threads    : 30

                  Objective                Residual
Iter       Primal          Dual         Primal    Dual     Compl     Time
   0  -2.11401566e+16 -1.58515573e+15  6.34e+06 1.56e+04  2.54e+12     4s
   1  -3.21246245e+15 -1.58990272e+15  9.56e+05 4.74e+06  8.37e+11     4s
   2  -1.36157468e+15 -1.27781861e+15  4.03e+05 7.46e+05  2.19e+11     5s
   3  -4.75101429e+14 -1.05033391e+15  1.38e+05 1.95e+05  6.98e+10     5s
   4  -1.10727228e+14 -6.38896544e+14  3.08e+04 4.43e+04  1.62e+10     5s
   5  -3.57832042e+13 -3.93067411e+14  1.01e+04 1.74e+04  5.94e+09     6s
   6  -1.56460057e+13 -2.85010607e+14  4.74e+03 8.76e+03  2.96e+09     6s
   7  -6.62397098e+12 -1.52330524e+14  2.21e+03 1.50e+03  9.54e+08     6s
   8  -6.96414240e+11 -7.10612175e+13  4.77e+02 2.00e+02  2.09e+08     6s
   9   7.44485664e+11 -8.75705934e+12  1.96e+00 2.19e+00  1.41e+07     7s
  10   1.83332306e+11 -8.38990886e+11  1.35e-01 6.22e-02  1.49e+06     7s
  11   9.00882338e+10 -4.74950222e+11  5.87e-02 1.22e-08  8.19e+05     7s
  12   3.81928855e+10 -2.02047304e+11  2.09e-02 7.45e-09  3.48e+05     8s
  13   2.29971112e+10 -9.74762431e+10  1.08e-02 1.12e-08  1.74e+05     8s
  14   2.35358055e+10 -8.72066805e+10  1.06e-02 1.12e-08  1.60e+05     8s
  15   1.73904794e+10 -3.65191230e+10  5.89e-03 1.12e-08  7.81e+04     8s
  16   1.18049798e+10 -6.06963450e+09  1.91e-03 1.49e-08  2.59e+04     9s
  17   9.85343124e+09  1.04155607e+09  7.30e-04 1.12e-08  1.27e+04     9s
  18   9.59145640e+09  3.84680885e+09  5.91e-04 7.45e-09  8.31e+03     9s
  19   9.20730876e+09  5.30298606e+09  3.88e-04 7.45e-09  5.64e+03     9s
  20   8.91475659e+09  5.64609777e+09  2.33e-04 5.59e-09  4.72e+03    10s
  21   8.79242031e+09  6.17126193e+09  1.76e-04 5.59e-09  3.79e+03    10s
  22   8.60762958e+09  7.33674712e+09  8.94e-05 3.73e-09  1.84e+03    10s
  23   8.51605273e+09  7.86769766e+09  5.47e-05 2.79e-09  9.36e+02    11s
  24   8.45449548e+09  7.96051407e+09  3.26e-05 2.79e-09  7.13e+02    11s
  25   8.41892394e+09  8.05552680e+09  2.09e-05 1.86e-09  5.25e+02    11s
  26   8.41731850e+09  8.12547817e+09  2.04e-05 1.86e-09  4.21e+02    11s
  27   8.39428303e+09  8.17080218e+09  1.32e-05 1.86e-09  3.23e+02    12s
  28   8.37635775e+09  8.20571028e+09  7.71e-06 1.86e-09  2.46e+02    12s
  29   8.36998670e+09  8.23740982e+09  5.87e-06 1.86e-09  1.91e+02    12s
  30   8.36242817e+09  8.26512741e+09  3.51e-06 1.86e-09  1.40e+02    13s
  31   8.35593186e+09  8.28521674e+09  1.85e-06 1.86e-09  1.02e+02    13s
  32   8.35264222e+09  8.30785884e+09  1.01e-06 1.86e-09  6.47e+01    13s
  33   8.34985511e+09  8.32431633e+09  3.80e-07 1.86e-09  3.69e+01    14s
  34   8.34859884e+09  8.33403097e+09  1.48e-07 1.86e-09  2.10e+01    14s
  35   8.34817922e+09  8.33736485e+09  2.73e-07 1.86e-09  1.56e+01    14s
  36   8.34808653e+09  8.33925769e+09  2.22e-07 1.86e-09  1.27e+01    15s
  37   8.34802752e+09  8.34095675e+09  1.61e-07 1.86e-09  1.02e+01    15s
  38   8.34795711e+09  8.34320209e+09  1.31e-07 1.86e-09  6.86e+00    15s
  39   8.34793257e+09  8.34354105e+09  1.93e-07 1.86e-09  6.34e+00    15s
  40   8.34787681e+09  8.34579648e+09  3.70e-07 1.86e-09  3.00e+00    16s
  41   8.34780734e+09  8.34761583e+09  5.32e-07 2.79e-09  2.76e-01    16s
  42   8.34777422e+09  8.34775733e+09  1.11e-07 2.79e-09  2.44e-02    16s
  43   8.34776441e+09  8.34776364e+09  3.13e-10 4.00e-09  1.10e-03    17s
  44   8.34776439e+09  8.34776438e+09  2.48e-05 9.72e-09  2.18e-05    17s
  45   8.34776439e+09  8.34776438e+09  8.42e-05 6.97e-04  2.18e-05    17s

Barrier solved model in 45 iterations and 17.20 seconds
Optimal objective 8.34776439e+09

Crossover log...

   76760 DPushes remaining with DInf 0.0000000e+00                17s
    1287 DPushes remaining with DInf 0.0000000e+00                20s
       0 DPushes remaining with DInf 0.0000000e+00                21s
Warning: Markowitz tolerance tightened to 0.5

  111378 PPushes remaining with PInf 5.1687166e-02                21s
   59137 PPushes remaining with PInf 2.3248464e-01                46s
   30670 PPushes remaining with PInf 2.3447505e-01                53s
   25525 PPushes remaining with PInf 2.3489749e-01                56s
   21433 PPushes remaining with PInf 1.9628600e-01                60s
       0 PPushes remaining with PInf 0.0000000e+00               137s

  Push phase complete: Pinf 0.0000000e+00, Dinf 1.6085341e+05    138s

Iteration    Objective       Primal Inf.    Dual Inf.      Time
  138852    8.3477644e+09   0.000000e+00   1.608534e+05    138s
  139394    8.3477644e+09   0.000000e+00   4.356986e+02    142s
  139703    8.3477644e+09   0.000000e+00   0.000000e+00    146s

Solved with barrier
Solved in 139703 iterations and 145.60 seconds
Optimal objective  8.347764379e+09
Warning: unscaled primal violation = 0.000878438 and residual = 0.000878438
